/* Objective function */
min: -4.0058056266 C289 +0.994194373402 C290 +0.994194373402 C291 +0.994194373402 C292 +0.994194373402 C293
 +0.994194373402 C294 -7.1458056266 C295 -17.3958056266 C296 -11.5158056266 C297 -7.4058056266 C298 -2.1258056266 C299
 -0.0658056265985 C300 +1.9841943734 C301 +4.0441943734 C302 +4.0441943734 C303 +4.0441943734 C304 +0.194194373401 C305
 -3.6558056266 C306 -7.1158056266 C307 -7.2058056266 C308 -5.6358056266 C309 -3.8158056266 C310 -2.4758056266 C311
 -1.6858056266 C312 -6.3758056266 C313 -1.3758056266 C314 -1.3758056266 C315 -1.3758056266 C316 -1.3758056266 C317
 -1.3758056266 C318 -11.8058056266 C319 -19.3558056266 C320 -18.1658056266 C321 -14.2158056266 C322 -9.33580562659 C323
 -7.3558056266 C324 -5.3858056266 C325 -3.4058056266 C326 -3.4058056266 C327 -3.4058056266 C328 -5.8558056266 C329
 -8.30580562659 C330 -9.99580562659 C331 -10.1058056266 C332 -8.64580562659 C333 -6.9558056266 C334 -5.7058056266 C335
 -4.9658056266 C336 -4.0047826087 C337 +0.995217391304 C338 +0.995217391304 C339 +0.995217391304 C340
 +0.995217391304 C341 +0.995217391304 C342 -7.1447826087 C343 -17.3947826087 C344 -11.5147826087 C345
 -7.4047826087 C346 -2.1247826087 C347 -0.0647826086956 C348 +1.9852173913 C349 +4.0452173913 C350 +4.0452173913 C351
 +4.0452173913 C352 +0.195217391304 C353 -3.6547826087 C354 -7.1147826087 C355 -7.2047826087 C356 -5.6347826087 C357
 -3.8147826087 C358 -2.4747826087 C359 -1.6847826087 C360 -6.3747826087 C361 -1.3747826087 C362 -1.3747826087 C363
 -1.3747826087 C364 -1.3747826087 C365 -1.3747826087 C366 -11.8047826087 C367 -19.3547826087 C368 -18.1647826087 C369
 -14.2147826087 C370 -9.33478260869 C371 -7.3547826087 C372 -5.3847826087 C373 -3.4047826087 C374 -3.4047826087 C375
 -3.4047826087 C376 -5.8547826087 C377 -8.30478260869 C378 -9.99478260869 C379 -10.1047826087 C380 -8.64478260869 C381
 -6.9547826087 C382 -5.7047826087 C383 -4.9647826087 C384 -4.00606719367 C385 +0.993932806324 C386 +0.993932806324 C387
 +0.993932806324 C388 +0.993932806324 C389 +0.993932806324 C390 -7.14606719367 C391 -17.3960671937 C392
 -11.5160671937 C393 -7.40606719367 C394 -2.12606719368 C395 -0.0660671936759 C396 +1.98393280632 C397
 +4.04393280633 C398 +4.04393280633 C399 +4.04393280633 C400 +0.193932806324 C401 -3.65606719368 C402
 -7.11606719367 C403 -7.20606719367 C404 -5.63606719367 C405 -3.81606719368 C406 -2.47606719368 C407
 -1.68606719368 C408 -6.37606719367 C409 -1.37606719368 C410 -1.37606719368 C411 -1.37606719368 C412
 -1.37606719368 C413 -1.37606719368 C414 -11.8060671937 C415 -19.3560671937 C416 -18.1660671937 C417
 -14.2160671937 C418 -9.33606719368 C419 -7.35606719367 C420 -5.38606719367 C421 -3.40606719368 C422
 -3.40606719368 C423 -3.40606719368 C424 -5.85606719367 C425 -8.30606719368 C426 -9.99606719368 C427
 -10.1060671937 C428 -8.64606719368 C429 -6.95606719367 C430 -5.70606719367 C431 -4.96606719367 C432
 +16.3043478261 C577 +16.3043478261 C578 +16.3043478261 C579 +16.3043478261 C580 +16.3043478261 C581
 +16.3043478261 C582 +16.3043478261 C583 +16.3043478261 C584 +16.3043478261 C585 +16.3043478261 C586
 +16.3043478261 C587 +16.3043478261 C588 +16.3043478261 C589 +16.3043478261 C590 +16.3043478261 C591
 +16.3043478261 C592 +16.3043478261 C593 +16.3043478261 C594 +16.3043478261 C595 +16.3043478261 C596
 +16.3043478261 C597 +16.3043478261 C598 +16.3043478261 C599 +16.3043478261 C600 +16.3043478261 C601
 +16.3043478261 C602 +16.3043478261 C603 +16.3043478261 C604 +16.3043478261 C605 +16.3043478261 C606
 +16.3043478261 C607 +16.3043478261 C608 +16.3043478261 C609 +16.3043478261 C610 +16.3043478261 C611
 +16.3043478261 C612 +16.3043478261 C613 +16.3043478261 C614 +16.3043478261 C615 +16.3043478261 C616
 +16.3043478261 C617 +16.3043478261 C618 +16.3043478261 C619 +16.3043478261 C620 +16.3043478261 C621
 +16.3043478261 C622 +16.3043478261 C623 +16.3043478261 C624;

/* Constraints */
+C145 -C433 <= 0;
+C146 -C481 <= 0;
+C147 -C529 <= 0;
-C145 +C148 -C434 <= 0;
-C146 +C149 -C482 <= 0;
-C147 +C150 -C530 <= 0;
-C148 +C151 -C435 <= 0;
-C149 +C152 -C483 <= 0;
-C150 +C153 -C531 <= 0;
-C151 +C154 -C436 <= 0;
-C152 +C155 -C484 <= 0;
-C153 +C156 -C532 <= 0;
-C154 +C157 -C437 <= 0;
-C155 +C158 -C485 <= 0;
-C156 +C159 -C533 <= 0;
-C157 +C160 -C438 <= 0;
-C158 +C161 -C486 <= 0;
-C159 +C162 -C534 <= 0;
-C160 +C163 -C439 <= 0;
-C161 +C164 -C487 <= 0;
-C162 +C165 -C535 <= 0;
-C163 +C166 -C440 <= 0;
-C164 +C167 -C488 <= 0;
-C165 +C168 -C536 <= 0;
-C166 +C169 -C441 <= 0;
-C167 +C170 -C489 <= 0;
-C168 +C171 -C537 <= 0;
-C169 +C172 -C442 <= 0;
-C170 +C173 -C490 <= 0;
-C171 +C174 -C538 <= 0;
-C172 +C175 -C443 <= 0;
-C173 +C176 -C491 <= 0;
-C174 +C177 -C539 <= 0;
-C175 +C178 -C444 <= 0;
-C176 +C179 -C492 <= 0;
-C177 +C180 -C540 <= 0;
-C178 +C181 -C445 <= 0;
-C179 +C182 -C493 <= 0;
-C180 +C183 -C541 <= 0;
-C181 +C184 -C446 <= 0;
-C182 +C185 -C494 <= 0;
-C183 +C186 -C542 <= 0;
-C184 +C187 -C447 <= 0;
-C185 +C188 -C495 <= 0;
-C186 +C189 -C543 <= 0;
-C187 +C190 -C448 <= 0;
-C188 +C191 -C496 <= 0;
-C189 +C192 -C544 <= 0;
-C190 +C193 -C449 <= 0;
-C191 +C194 -C497 <= 0;
-C192 +C195 -C545 <= 0;
-C193 +C196 -C450 <= 0;
-C194 +C197 -C498 <= 0;
-C195 +C198 -C546 <= 0;
-C196 +C199 -C451 <= 0;
-C197 +C200 -C499 <= 0;
-C198 +C201 -C547 <= 0;
-C199 +C202 -C452 <= 0;
-C200 +C203 -C500 <= 0;
-C201 +C204 -C548 <= 0;
-C202 +C205 -C453 <= 0;
-C203 +C206 -C501 <= 0;
-C204 +C207 -C549 <= 0;
-C205 +C208 -C454 <= 0;
-C206 +C209 -C502 <= 0;
-C207 +C210 -C550 <= 0;
-C208 +C211 -C455 <= 0;
-C209 +C212 -C503 <= 0;
-C210 +C213 -C551 <= 0;
-C211 +C214 -C456 <= 0;
-C212 +C215 -C504 <= 0;
-C213 +C216 -C552 <= 0;
-C214 +C217 -C457 <= 0;
-C215 +C218 -C505 <= 0;
-C216 +C219 -C553 <= 0;
-C217 +C220 -C458 <= 0;
-C218 +C221 -C506 <= 0;
-C219 +C222 -C554 <= 0;
-C220 +C223 -C459 <= 0;
-C221 +C224 -C507 <= 0;
-C222 +C225 -C555 <= 0;
-C223 +C226 -C460 <= 0;
-C224 +C227 -C508 <= 0;
-C225 +C228 -C556 <= 0;
-C226 +C229 -C461 <= 0;
-C227 +C230 -C509 <= 0;
-C228 +C231 -C557 <= 0;
-C229 +C232 -C462 <= 0;
-C230 +C233 -C510 <= 0;
-C231 +C234 -C558 <= 0;
-C232 +C235 -C463 <= 0;
-C233 +C236 -C511 <= 0;
-C234 +C237 -C559 <= 0;
-C235 +C238 -C464 <= 0;
-C236 +C239 -C512 <= 0;
-C237 +C240 -C560 <= 0;
-C238 +C241 -C465 <= 0;
-C239 +C242 -C513 <= 0;
-C240 +C243 -C561 <= 0;
-C241 +C244 -C466 <= 0;
-C242 +C245 -C514 <= 0;
-C243 +C246 -C562 <= 0;
-C244 +C247 -C467 <= 0;
-C245 +C248 -C515 <= 0;
-C246 +C249 -C563 <= 0;
-C247 +C250 -C468 <= 0;
-C248 +C251 -C516 <= 0;
-C249 +C252 -C564 <= 0;
-C250 +C253 -C469 <= 0;
-C251 +C254 -C517 <= 0;
-C252 +C255 -C565 <= 0;
-C253 +C256 -C470 <= 0;
-C254 +C257 -C518 <= 0;
-C255 +C258 -C566 <= 0;
-C256 +C259 -C471 <= 0;
-C257 +C260 -C519 <= 0;
-C258 +C261 -C567 <= 0;
-C259 +C262 -C472 <= 0;
-C260 +C263 -C520 <= 0;
-C261 +C264 -C568 <= 0;
-C262 +C265 -C473 <= 0;
-C263 +C266 -C521 <= 0;
-C264 +C267 -C569 <= 0;
-C265 +C268 -C474 <= 0;
-C266 +C269 -C522 <= 0;
-C267 +C270 -C570 <= 0;
-C268 +C271 -C475 <= 0;
-C269 +C272 -C523 <= 0;
-C270 +C273 -C571 <= 0;
-C271 +C274 -C476 <= 0;
-C272 +C275 -C524 <= 0;
-C273 +C276 -C572 <= 0;
-C274 +C277 -C477 <= 0;
-C275 +C278 -C525 <= 0;
-C276 +C279 -C573 <= 0;
-C277 +C280 -C478 <= 0;
-C278 +C281 -C526 <= 0;
-C279 +C282 -C574 <= 0;
-C280 +C283 -C479 <= 0;
-C281 +C284 -C527 <= 0;
-C282 +C285 -C575 <= 0;
-C283 +C286 -C480 <= 0;
-C284 +C287 -C528 <= 0;
-C285 +C288 -C576 <= 0;
+C433 +C434 +C435 +C436 +C437 +C438 +C439 +C440 +C441 +C442 +C443 +C444 +C445 +C446 +C447 +C448 +C449
 +C450 +C451 +C452 +C453 +C454 +C455 +C456 <= 10;
+C481 +C482 +C483 +C484 +C485 +C486 +C487 +C488 +C489 +C490 +C491 +C492 +C493 +C494 +C495 +C496 +C497
 +C498 +C499 +C500 +C501 +C502 +C503 +C504 <= 10;
+C529 +C530 +C531 +C532 +C533 +C534 +C535 +C536 +C537 +C538 +C539 +C540 +C541 +C542 +C543 +C544 +C545
 +C546 +C547 +C548 +C549 +C550 +C551 +C552 <= 10;
+C457 +C458 +C459 +C460 +C461 +C462 +C463 +C464 +C465 +C466 +C467 +C468 +C469 +C470 +C471 +C472 +C473
 +C474 +C475 +C476 +C477 +C478 +C479 +C480 <= 10;
+C505 +C506 +C507 +C508 +C509 +C510 +C511 +C512 +C513 +C514 +C515 +C516 +C517 +C518 +C519 +C520 +C521
 +C522 +C523 +C524 +C525 +C526 +C527 +C528 <= 10;
+C553 +C554 +C555 +C556 +C557 +C558 +C559 +C560 +C561 +C562 +C563 +C564 +C565 +C566 +C567 +C568 +C569
 +C570 +C571 +C572 +C573 +C574 +C575 +C576 <= 10;
+11050 C145 -C289 <= 0;
+17000 C145 -C289 >= 0;
+4875 C146 -C337 <= 0;
+7500 C146 -C337 >= 0;
+2860 C147 -C385 <= 0;
+4400 C147 -C385 >= 0;
+11050 C148 -C290 <= 0;
+17000 C148 -C290 >= 0;
+4875 C149 -C338 <= 0;
+7500 C149 -C338 >= 0;
+2860 C150 -C386 <= 0;
+4400 C150 -C386 >= 0;
+11050 C151 -C291 <= 0;
+17000 C151 -C291 >= 0;
+4875 C152 -C339 <= 0;
+7500 C152 -C339 >= 0;
+2860 C153 -C387 <= 0;
+4400 C153 -C387 >= 0;
+11050 C154 -C292 <= 0;
+17000 C154 -C292 >= 0;
+4875 C155 -C340 <= 0;
+7500 C155 -C340 >= 0;
+2860 C156 -C388 <= 0;
+4400 C156 -C388 >= 0;
+11050 C157 -C293 <= 0;
+17000 C157 -C293 >= 0;
+4875 C158 -C341 <= 0;
+7500 C158 -C341 >= 0;
+2860 C159 -C389 <= 0;
+4400 C159 -C389 >= 0;
+11050 C160 -C294 <= 0;
+17000 C160 -C294 >= 0;
+4875 C161 -C342 <= 0;
+7500 C161 -C342 >= 0;
+2860 C162 -C390 <= 0;
+4400 C162 -C390 >= 0;
+11050 C163 -C295 <= 0;
+17000 C163 -C295 >= 0;
+4875 C164 -C343 <= 0;
+7500 C164 -C343 >= 0;
+2860 C165 -C391 <= 0;
+4400 C165 -C391 >= 0;
+11050 C166 -C296 <= 0;
+17000 C166 -C296 >= 0;
+4875 C167 -C344 <= 0;
+7500 C167 -C344 >= 0;
+2860 C168 -C392 <= 0;
+4400 C168 -C392 >= 0;
+11050 C169 -C297 <= 0;
+17000 C169 -C297 >= 0;
+4875 C170 -C345 <= 0;
+7500 C170 -C345 >= 0;
+2860 C171 -C393 <= 0;
+4400 C171 -C393 >= 0;
+11050 C172 -C298 <= 0;
+17000 C172 -C298 >= 0;
+4875 C173 -C346 <= 0;
+7500 C173 -C346 >= 0;
+2860 C174 -C394 <= 0;
+4400 C174 -C394 >= 0;
+11050 C175 -C299 <= 0;
+17000 C175 -C299 >= 0;
+4875 C176 -C347 <= 0;
+7500 C176 -C347 >= 0;
+2860 C177 -C395 <= 0;
+4400 C177 -C395 >= 0;
+11050 C178 -C300 <= 0;
+17000 C178 -C300 >= 0;
+4875 C179 -C348 <= 0;
+7500 C179 -C348 >= 0;
+2860 C180 -C396 <= 0;
+4400 C180 -C396 >= 0;
+11050 C181 -C301 <= 0;
+17000 C181 -C301 >= 0;
+4875 C182 -C349 <= 0;
+7500 C182 -C349 >= 0;
+2860 C183 -C397 <= 0;
+4400 C183 -C397 >= 0;
+11050 C184 -C302 <= 0;
+17000 C184 -C302 >= 0;
+4875 C185 -C350 <= 0;
+7500 C185 -C350 >= 0;
+2860 C186 -C398 <= 0;
+4400 C186 -C398 >= 0;
+11050 C187 -C303 <= 0;
+17000 C187 -C303 >= 0;
+4875 C188 -C351 <= 0;
+7500 C188 -C351 >= 0;
+2860 C189 -C399 <= 0;
+4400 C189 -C399 >= 0;
+11050 C190 -C304 <= 0;
+17000 C190 -C304 >= 0;
+4875 C191 -C352 <= 0;
+7500 C191 -C352 >= 0;
+2860 C192 -C400 <= 0;
+4400 C192 -C400 >= 0;
+11050 C193 -C305 <= 0;
+17000 C193 -C305 >= 0;
+4875 C194 -C353 <= 0;
+7500 C194 -C353 >= 0;
+2860 C195 -C401 <= 0;
+4400 C195 -C401 >= 0;
+11050 C196 -C306 <= 0;
+17000 C196 -C306 >= 0;
+4875 C197 -C354 <= 0;
+7500 C197 -C354 >= 0;
+2860 C198 -C402 <= 0;
+4400 C198 -C402 >= 0;
+11050 C199 -C307 <= 0;
+17000 C199 -C307 >= 0;
+4875 C200 -C355 <= 0;
+7500 C200 -C355 >= 0;
+2860 C201 -C403 <= 0;
+4400 C201 -C403 >= 0;
+11050 C202 -C308 <= 0;
+17000 C202 -C308 >= 0;
+4875 C203 -C356 <= 0;
+7500 C203 -C356 >= 0;
+2860 C204 -C404 <= 0;
+4400 C204 -C404 >= 0;
+11050 C205 -C309 <= 0;
+17000 C205 -C309 >= 0;
+4875 C206 -C357 <= 0;
+7500 C206 -C357 >= 0;
+2860 C207 -C405 <= 0;
+4400 C207 -C405 >= 0;
+11050 C208 -C310 <= 0;
+17000 C208 -C310 >= 0;
+4875 C209 -C358 <= 0;
+7500 C209 -C358 >= 0;
+2860 C210 -C406 <= 0;
+4400 C210 -C406 >= 0;
+11050 C211 -C311 <= 0;
+17000 C211 -C311 >= 0;
+4875 C212 -C359 <= 0;
+7500 C212 -C359 >= 0;
+2860 C213 -C407 <= 0;
+4400 C213 -C407 >= 0;
+11050 C214 -C312 <= 0;
+17000 C214 -C312 >= 0;
+4875 C215 -C360 <= 0;
+7500 C215 -C360 >= 0;
+2860 C216 -C408 <= 0;
+4400 C216 -C408 >= 0;
+11050 C217 -C313 <= 0;
+17000 C217 -C313 >= 0;
+4875 C218 -C361 <= 0;
+7500 C218 -C361 >= 0;
+2860 C219 -C409 <= 0;
+4400 C219 -C409 >= 0;
+11050 C220 -C314 <= 0;
+17000 C220 -C314 >= 0;
+4875 C221 -C362 <= 0;
+7500 C221 -C362 >= 0;
+2860 C222 -C410 <= 0;
+4400 C222 -C410 >= 0;
+11050 C223 -C315 <= 0;
+17000 C223 -C315 >= 0;
+4875 C224 -C363 <= 0;
+7500 C224 -C363 >= 0;
+2860 C225 -C411 <= 0;
+4400 C225 -C411 >= 0;
+11050 C226 -C316 <= 0;
+17000 C226 -C316 >= 0;
+4875 C227 -C364 <= 0;
+7500 C227 -C364 >= 0;
+2860 C228 -C412 <= 0;
+4400 C228 -C412 >= 0;
+11050 C229 -C317 <= 0;
+17000 C229 -C317 >= 0;
+4875 C230 -C365 <= 0;
+7500 C230 -C365 >= 0;
+2860 C231 -C413 <= 0;
+4400 C231 -C413 >= 0;
+11050 C232 -C318 <= 0;
+17000 C232 -C318 >= 0;
+4875 C233 -C366 <= 0;
+7500 C233 -C366 >= 0;
+2860 C234 -C414 <= 0;
+4400 C234 -C414 >= 0;
+11050 C235 -C319 <= 0;
+17000 C235 -C319 >= 0;
+4875 C236 -C367 <= 0;
+7500 C236 -C367 >= 0;
+2860 C237 -C415 <= 0;
+4400 C237 -C415 >= 0;
+11050 C238 -C320 <= 0;
+17000 C238 -C320 >= 0;
+4875 C239 -C368 <= 0;
+7500 C239 -C368 >= 0;
+2860 C240 -C416 <= 0;
+4400 C240 -C416 >= 0;
+11050 C241 -C321 <= 0;
+17000 C241 -C321 >= 0;
+4875 C242 -C369 <= 0;
+7500 C242 -C369 >= 0;
+2860 C243 -C417 <= 0;
+4400 C243 -C417 >= 0;
+11050 C244 -C322 <= 0;
+17000 C244 -C322 >= 0;
+4875 C245 -C370 <= 0;
+7500 C245 -C370 >= 0;
+2860 C246 -C418 <= 0;
+4400 C246 -C418 >= 0;
+11050 C247 -C323 <= 0;
+17000 C247 -C323 >= 0;
+4875 C248 -C371 <= 0;
+7500 C248 -C371 >= 0;
+2860 C249 -C419 <= 0;
+4400 C249 -C419 >= 0;
+11050 C250 -C324 <= 0;
+17000 C250 -C324 >= 0;
+4875 C251 -C372 <= 0;
+7500 C251 -C372 >= 0;
+2860 C252 -C420 <= 0;
+4400 C252 -C420 >= 0;
+11050 C253 -C325 <= 0;
+17000 C253 -C325 >= 0;
+4875 C254 -C373 <= 0;
+7500 C254 -C373 >= 0;
+2860 C255 -C421 <= 0;
+4400 C255 -C421 >= 0;
+11050 C256 -C326 <= 0;
+17000 C256 -C326 >= 0;
+4875 C257 -C374 <= 0;
+7500 C257 -C374 >= 0;
+2860 C258 -C422 <= 0;
+4400 C258 -C422 >= 0;
+11050 C259 -C327 <= 0;
+17000 C259 -C327 >= 0;
+4875 C260 -C375 <= 0;
+7500 C260 -C375 >= 0;
+2860 C261 -C423 <= 0;
+4400 C261 -C423 >= 0;
+11050 C262 -C328 <= 0;
+17000 C262 -C328 >= 0;
+4875 C263 -C376 <= 0;
+7500 C263 -C376 >= 0;
+2860 C264 -C424 <= 0;
+4400 C264 -C424 >= 0;
+11050 C265 -C329 <= 0;
+17000 C265 -C329 >= 0;
+4875 C266 -C377 <= 0;
+7500 C266 -C377 >= 0;
+2860 C267 -C425 <= 0;
+4400 C267 -C425 >= 0;
+11050 C268 -C330 <= 0;
+17000 C268 -C330 >= 0;
+4875 C269 -C378 <= 0;
+7500 C269 -C378 >= 0;
+2860 C270 -C426 <= 0;
+4400 C270 -C426 >= 0;
+11050 C271 -C331 <= 0;
+17000 C271 -C331 >= 0;
+4875 C272 -C379 <= 0;
+7500 C272 -C379 >= 0;
+2860 C273 -C427 <= 0;
+4400 C273 -C427 >= 0;
+11050 C274 -C332 <= 0;
+17000 C274 -C332 >= 0;
+4875 C275 -C380 <= 0;
+7500 C275 -C380 >= 0;
+2860 C276 -C428 <= 0;
+4400 C276 -C428 >= 0;
+11050 C277 -C333 <= 0;
+17000 C277 -C333 >= 0;
+4875 C278 -C381 <= 0;
+7500 C278 -C381 >= 0;
+2860 C279 -C429 <= 0;
+4400 C279 -C429 >= 0;
+11050 C280 -C334 <= 0;
+17000 C280 -C334 >= 0;
+4875 C281 -C382 <= 0;
+7500 C281 -C382 >= 0;
+2860 C282 -C430 <= 0;
+4400 C282 -C430 >= 0;
+11050 C283 -C335 <= 0;
+17000 C283 -C335 >= 0;
+4875 C284 -C383 <= 0;
+7500 C284 -C383 >= 0;
+2860 C285 -C431 <= 0;
+4400 C285 -C431 >= 0;
+11050 C286 -C336 <= 0;
+17000 C286 -C336 >= 0;
+4875 C287 -C384 <= 0;
+7500 C287 -C384 >= 0;
+2860 C288 -C432 <= 0;
+4400 C288 -C432 >= 0;
-C1 +C49 +C97 = 0;
-C2 +C50 -C97 +C98 = 0;
-C3 +C51 -C98 +C99 = 0;
-C4 +C52 -C99 +C100 = 0;
-C5 +C53 -C100 +C101 = 0;
-C6 +C54 -C101 +C102 = 0;
-C7 +C55 -C102 +C103 = 0;
-C8 +C56 -C103 +C104 = 0;
-C9 +C57 -C104 +C105 = 0;
-C10 +C58 -C105 +C106 = 0;
-C11 +C59 -C106 +C107 = 0;
-C12 +C60 -C107 +C108 = 0;
-C13 +C61 -C108 +C109 = 0;
-C14 +C62 -C109 +C110 = 0;
-C15 +C63 -C110 +C111 = 0;
-C16 +C64 -C111 +C112 = 0;
-C17 +C65 -C112 +C113 = 0;
-C18 +C66 -C113 +C114 = 0;
-C19 +C67 -C114 +C115 = 0;
-C20 +C68 -C115 +C116 = 0;
-C21 +C69 -C116 +C117 = 0;
-C22 +C70 -C117 +C118 = 0;
-C23 +C71 -C118 +C119 = 0;
-C24 +C72 -C119 +C120 = 0;
-C25 +C73 -C120 +C121 = 0;
-C26 +C74 -C121 +C122 = 0;
-C27 +C75 -C122 +C123 = 0;
-C28 +C76 -C123 +C124 = 0;
-C29 +C77 -C124 +C125 = 0;
-C30 +C78 -C125 +C126 = 0;
-C31 +C79 -C126 +C127 = 0;
-C32 +C80 -C127 +C128 = 0;
-C33 +C81 -C128 +C129 = 0;
-C34 +C82 -C129 +C130 = 0;
-C35 +C83 -C130 +C131 = 0;
-C36 +C84 -C131 +C132 = 0;
-C37 +C85 -C132 +C133 = 0;
-C38 +C86 -C133 +C134 = 0;
-C39 +C87 -C134 +C135 = 0;
-C40 +C88 -C135 +C136 = 0;
-C41 +C89 -C136 +C137 = 0;
-C42 +C90 -C137 +C138 = 0;
-C43 +C91 -C138 +C139 = 0;
-C44 +C92 -C139 +C140 = 0;
-C45 +C93 -C140 +C141 = 0;
-C46 +C94 -C141 +C142 = 0;
-C47 +C95 -C142 +C143 = 0;
-C48 +C96 -C143 +C144 = 0;
-C1 +C49 +1.19047058824 C289 +1.19053333333 C337 +1.19045454545 C385 +C577 >= 27700;
-C2 +C50 +1.19047058824 C290 +1.19053333333 C338 +1.19045454545 C386 +C578 >= 27700;
-C3 +C51 +1.19047058824 C291 +1.19053333333 C339 +1.19045454545 C387 +C579 >= 27700;
-C4 +C52 +1.19047058824 C292 +1.19053333333 C340 +1.19045454545 C388 +C580 >= 27700;
-C5 +C53 +1.19047058824 C293 +1.19053333333 C341 +1.19045454545 C389 +C581 >= 27700;
-C6 +C54 +1.19047058824 C294 +1.19053333333 C342 +1.19045454545 C390 +C582 >= 27700;
-C7 +C55 +1.19047058824 C295 +1.19053333333 C343 +1.19045454545 C391 +C583 >= 27700;
-C8 +C56 +1.19047058824 C296 +1.19053333333 C344 +1.19045454545 C392 +C584 >= 27700;
-C9 +C57 +1.19047058824 C297 +1.19053333333 C345 +1.19045454545 C393 +C585 >= 27700;
-C10 +C58 +1.19047058824 C298 +1.19053333333 C346 +1.19045454545 C394 +C586 >= 27700;
-C11 +C59 +1.19047058824 C299 +1.19053333333 C347 +1.19045454545 C395 +C587 >= 27700;
-C12 +C60 +1.19047058824 C300 +1.19053333333 C348 +1.19045454545 C396 +C588 >= 27700;
-C13 +C61 +1.19047058824 C301 +1.19053333333 C349 +1.19045454545 C397 +C589 >= 27700;
-C14 +C62 +1.19047058824 C302 +1.19053333333 C350 +1.19045454545 C398 +C590 >= 27700;
-C15 +C63 +1.19047058824 C303 +1.19053333333 C351 +1.19045454545 C399 +C591 >= 27700;
-C16 +C64 +1.19047058824 C304 +1.19053333333 C352 +1.19045454545 C400 +C592 >= 27700;
-C17 +C65 +1.19047058824 C305 +1.19053333333 C353 +1.19045454545 C401 +C593 >= 27700;
-C18 +C66 +1.19047058824 C306 +1.19053333333 C354 +1.19045454545 C402 +C594 >= 27700;
-C19 +C67 +1.19047058824 C307 +1.19053333333 C355 +1.19045454545 C403 +C595 >= 27700;
-C20 +C68 +1.19047058824 C308 +1.19053333333 C356 +1.19045454545 C404 +C596 >= 27700;
-C21 +C69 +1.19047058824 C309 +1.19053333333 C357 +1.19045454545 C405 +C597 >= 27700;
-C22 +C70 +1.19047058824 C310 +1.19053333333 C358 +1.19045454545 C406 +C598 >= 27700;
-C23 +C71 +1.19047058824 C311 +1.19053333333 C359 +1.19045454545 C407 +C599 >= 27700;
-C24 +C72 +1.19047058824 C312 +1.19053333333 C360 +1.19045454545 C408 +C600 >= 27700;
-C25 +C73 +1.19047058824 C313 +1.19053333333 C361 +1.19045454545 C409 +C601 >= 27700;
-C26 +C74 +1.19047058824 C314 +1.19053333333 C362 +1.19045454545 C410 +C602 >= 27700;
-C27 +C75 +1.19047058824 C315 +1.19053333333 C363 +1.19045454545 C411 +C603 >= 27700;
-C28 +C76 +1.19047058824 C316 +1.19053333333 C364 +1.19045454545 C412 +C604 >= 27700;
-C29 +C77 +1.19047058824 C317 +1.19053333333 C365 +1.19045454545 C413 +C605 >= 27700;
-C30 +C78 +1.19047058824 C318 +1.19053333333 C366 +1.19045454545 C414 +C606 >= 27700;
-C31 +C79 +1.19047058824 C319 +1.19053333333 C367 +1.19045454545 C415 +C607 >= 27700;
-C32 +C80 +1.19047058824 C320 +1.19053333333 C368 +1.19045454545 C416 +C608 >= 27700;
-C33 +C81 +1.19047058824 C321 +1.19053333333 C369 +1.19045454545 C417 +C609 >= 27700;
-C34 +C82 +1.19047058824 C322 +1.19053333333 C370 +1.19045454545 C418 +C610 >= 27700;
-C35 +C83 +1.19047058824 C323 +1.19053333333 C371 +1.19045454545 C419 +C611 >= 27700;
-C36 +C84 +1.19047058824 C324 +1.19053333333 C372 +1.19045454545 C420 +C612 >= 27700;
-C37 +C85 +1.19047058824 C325 +1.19053333333 C373 +1.19045454545 C421 +C613 >= 27700;
-C38 +C86 +1.19047058824 C326 +1.19053333333 C374 +1.19045454545 C422 +C614 >= 27700;
-C39 +C87 +1.19047058824 C327 +1.19053333333 C375 +1.19045454545 C423 +C615 >= 27700;
-C40 +C88 +1.19047058824 C328 +1.19053333333 C376 +1.19045454545 C424 +C616 >= 27700;
-C41 +C89 +1.19047058824 C329 +1.19053333333 C377 +1.19045454545 C425 +C617 >= 27700;
-C42 +C90 +1.19047058824 C330 +1.19053333333 C378 +1.19045454545 C426 +C618 >= 27700;
-C43 +C91 +1.19047058824 C331 +1.19053333333 C379 +1.19045454545 C427 +C619 >= 27700;
-C44 +C92 +1.19047058824 C332 +1.19053333333 C380 +1.19045454545 C428 +C620 >= 27700;
-C45 +C93 +1.19047058824 C333 +1.19053333333 C381 +1.19045454545 C429 +C621 >= 27700;
-C46 +C94 +1.19047058824 C334 +1.19053333333 C382 +1.19045454545 C430 +C622 >= 27700;
-C47 +C95 +1.19047058824 C335 +1.19053333333 C383 +1.19045454545 C431 +C623 >= 27700;
-C48 +C96 +1.19047058824 C336 +1.19053333333 C384 +1.19045454545 C432 +C624 >= 27700;
+C289 +C290 +C291 +C292 +C293 +C294 +C295 +C296 +C297 +C298 +C299 +C300 +C301 +C302 +C303 +C304 +C305
 +C306 +C307 +C308 +C309 +C310 +C311 +C312 +C313 +C314 +C315 +C316 +C317 +C318 +C319 +C320 +C321 +C322
 +C323 +C324 +C325 +C326 +C327 +C328 +C329 +C330 +C331 +C332 +C333 +C334 +C335 +C336 <= 816000;
+C337 +C338 +C339 +C340 +C341 +C342 +C343 +C344 +C345 +C346 +C347 +C348 +C349 +C350 +C351 +C352 +C353
 +C354 +C355 +C356 +C357 +C358 +C359 +C360 +C361 +C362 +C363 +C364 +C365 +C366 +C367 +C368 +C369 +C370
 +C371 +C372 +C373 +C374 +C375 +C376 +C377 +C378 +C379 +C380 +C381 +C382 +C383 +C384 <= 360000;
+C385 +C386 +C387 +C388 +C389 +C390 +C391 +C392 +C393 +C394 +C395 +C396 +C397 +C398 +C399 +C400 +C401
 +C402 +C403 +C404 +C405 +C406 +C407 +C408 +C409 +C410 +C411 +C412 +C413 +C414 +C415 +C416 +C417 +C418
 +C419 +C420 +C421 +C422 +C423 +C424 +C425 +C426 +C427 +C428 +C429 +C430 +C431 +C432 <= 211200;
+C289 +C337 +C385 >= 0;
+C290 +C338 +C386 >= 0;
+C291 +C339 +C387 >= 0;
+C292 +C340 +C388 >= 0;
+C293 +C341 +C389 >= 27100;
+C294 +C342 +C390 >= 27100;
+C295 +C343 +C391 >= 27100;
+C296 +C344 +C392 >= 27100;
+C297 +C345 +C393 >= 27100;
+C298 +C346 +C394 >= 27100;
+C299 +C347 +C395 >= 0;
+C300 +C348 +C396 >= 11000;
+C301 +C349 +C397 >= 11000;
+C302 +C350 +C398 >= 11000;
+C303 +C351 +C399 >= 12000;
+C304 +C352 +C400 >= 13000;
+C305 +C353 +C401 >= 16900;
+C306 +C354 +C402 >= 16900;
+C307 +C355 +C403 >= 0;
+C308 +C356 +C404 >= 0;
+C309 +C357 +C405 >= 0;
+C310 +C358 +C406 >= 0;
+C311 +C359 +C407 >= 0;
+C312 +C360 +C408 >= 0;
+C313 +C361 +C409 >= 0;
+C314 +C362 +C410 >= 0;
+C315 +C363 +C411 >= 0;
+C316 +C364 +C412 >= 0;
+C317 +C365 +C413 >= 27100;
+C318 +C366 +C414 >= 27100;
+C319 +C367 +C415 >= 27100;
+C320 +C368 +C416 >= 27100;
+C321 +C369 +C417 >= 27100;
+C322 +C370 +C418 >= 27100;
+C323 +C371 +C419 >= 0;
+C324 +C372 +C420 >= 0;
+C325 +C373 +C421 >= 0;
+C326 +C374 +C422 >= 0;
+C327 +C375 +C423 >= 0;
+C328 +C376 +C424 >= 0;
+C329 +C377 +C425 >= 16900;
+C330 +C378 +C426 >= 16900;
+C331 +C379 +C427 >= 0;
+C332 +C380 +C428 >= 0;
+C333 +C381 +C429 >= 0;
+C334 +C382 +C430 >= 0;
+C335 +C383 +C431 >= 0;
+C336 +C384 +C432 >= 0;

/* Variable bounds */
C97 <= 573000;
C98 <= 573000;
C99 <= 573000;
C100 <= 573000;
C101 <= 573000;
C102 <= 573000;
C103 <= 573000;
C104 <= 573000;
C105 <= 573000;
C106 <= 573000;
C107 <= 573000;
C108 <= 573000;
C109 <= 573000;
C110 <= 573000;
C111 <= 573000;
C112 <= 573000;
C113 <= 573000;
C114 <= 573000;
C115 <= 573000;
C116 <= 573000;
C117 <= 573000;
C118 <= 573000;
C119 <= 573000;
C120 <= 573000;
C121 <= 573000;
C122 <= 573000;
C123 <= 573000;
C124 <= 573000;
C125 <= 573000;
C126 <= 573000;
C127 <= 573000;
C128 <= 573000;
C129 <= 573000;
C130 <= 573000;
C131 <= 573000;
C132 <= 573000;
C133 <= 573000;
C134 <= 573000;
C135 <= 573000;
C136 <= 573000;
C137 <= 573000;
C138 <= 573000;
C139 <= 573000;
C140 <= 573000;
C141 <= 573000;
C142 <= 573000;
C143 <= 573000;
C144 <= 573000;
C145 <= 1;
C146 <= 1;
C147 <= 1;
C148 <= 1;
C149 <= 1;
C150 <= 1;
C151 <= 1;
C152 <= 1;
C153 <= 1;
C154 <= 1;
C155 <= 1;
C156 <= 1;
C157 <= 1;
C158 <= 1;
C159 <= 1;
C160 <= 1;
C161 <= 1;
C162 <= 1;
C163 <= 1;
C164 <= 1;
C165 <= 1;
C166 <= 1;
C167 <= 1;
C168 <= 1;
C169 <= 1;
C170 <= 1;
C171 <= 1;
C172 <= 1;
C173 <= 1;
C174 <= 1;
C175 <= 1;
C176 <= 1;
C177 <= 1;
C178 <= 1;
C179 <= 1;
C180 <= 1;
C181 <= 1;
C182 <= 1;
C183 <= 1;
C184 <= 1;
C185 <= 1;
C186 <= 1;
C187 <= 1;
C188 <= 1;
C189 <= 1;
C190 <= 1;
C191 <= 1;
C192 <= 1;
C193 <= 1;
C194 <= 1;
C195 <= 1;
C196 <= 1;
C197 <= 1;
C198 <= 1;
C199 <= 1;
C200 <= 1;
C201 <= 1;
C202 <= 1;
C203 <= 1;
C204 <= 1;
C205 <= 1;
C206 <= 1;
C207 <= 1;
C208 <= 1;
C209 <= 1;
C210 <= 1;
C211 <= 1;
C212 <= 1;
C213 <= 1;
C214 <= 1;
C215 <= 1;
C216 <= 1;
C217 <= 1;
C218 <= 1;
C219 <= 1;
C220 <= 1;
C221 <= 1;
C222 <= 1;
C223 <= 1;
C224 <= 1;
C225 <= 1;
C226 <= 1;
C227 <= 1;
C228 <= 1;
C229 <= 1;
C230 <= 1;
C231 <= 1;
C232 <= 1;
C233 <= 1;
C234 <= 1;
C235 <= 1;
C236 <= 1;
C237 <= 1;
C238 <= 1;
C239 <= 1;
C240 <= 1;
C241 <= 1;
C242 <= 1;
C243 <= 1;
C244 <= 1;
C245 <= 1;
C246 <= 1;
C247 <= 1;
C248 <= 1;
C249 <= 1;
C250 <= 1;
C251 <= 1;
C252 <= 1;
C253 <= 1;
C254 <= 1;
C255 <= 1;
C256 <= 1;
C257 <= 1;
C258 <= 1;
C259 <= 1;
C260 <= 1;
C261 <= 1;
C262 <= 1;
C263 <= 1;
C264 <= 1;
C265 <= 1;
C266 <= 1;
C267 <= 1;
C268 <= 1;
C269 <= 1;
C270 <= 1;
C271 <= 1;
C272 <= 1;
C273 <= 1;
C274 <= 1;
C275 <= 1;
C276 <= 1;
C277 <= 1;
C278 <= 1;
C279 <= 1;
C280 <= 1;
C281 <= 1;
C282 <= 1;
C283 <= 1;
C284 <= 1;
C285 <= 1;
C286 <= 1;
C287 <= 1;
C288 <= 1;
C289 <= 17000;
C290 <= 17000;
C291 <= 17000;
C292 <= 17000;
C293 <= 17000;
C294 <= 17000;
C295 <= 17000;
C296 <= 17000;
C297 <= 17000;
C298 <= 17000;
C299 <= 17000;
C300 <= 17000;
C301 <= 17000;
C302 <= 17000;
C303 <= 17000;
C304 <= 17000;
C305 <= 17000;
C306 <= 17000;
C307 <= 17000;
C308 <= 17000;
C309 <= 17000;
C310 <= 17000;
C311 <= 17000;
C312 <= 17000;
C313 <= 17000;
C314 <= 17000;
C315 <= 17000;
C316 <= 17000;
C317 <= 17000;
C318 <= 17000;
C319 <= 17000;
C320 <= 17000;
C321 <= 17000;
C322 <= 17000;
C323 <= 17000;
C324 <= 17000;
C325 <= 17000;
C326 <= 17000;
C327 <= 17000;
C328 <= 17000;
C329 <= 17000;
C330 <= 17000;
C331 <= 17000;
C332 <= 17000;
C333 <= 17000;
C334 <= 17000;
C335 <= 17000;
C336 <= 17000;
C337 <= 7500;
C338 <= 7500;
C339 <= 7500;
C340 <= 7500;
C341 <= 7500;
C342 <= 7500;
C343 <= 7500;
C344 <= 7500;
C345 <= 7500;
C346 <= 7500;
C347 <= 7500;
C348 <= 7500;
C349 <= 7500;
C350 <= 7500;
C351 <= 7500;
C352 <= 7500;
C353 <= 7500;
C354 <= 7500;
C355 <= 7500;
C356 <= 7500;
C357 <= 7500;
C358 <= 7500;
C359 <= 7500;
C360 <= 7500;
C361 <= 7500;
C362 <= 7500;
C363 <= 7500;
C364 <= 7500;
C365 <= 7500;
C366 <= 7500;
C367 <= 7500;
C368 <= 7500;
C369 <= 7500;
C370 <= 7500;
C371 <= 7500;
C372 <= 7500;
C373 <= 7500;
C374 <= 7500;
C375 <= 7500;
C376 <= 7500;
C377 <= 7500;
C378 <= 7500;
C379 <= 7500;
C380 <= 7500;
C381 <= 7500;
C382 <= 7500;
C383 <= 7500;
C384 <= 7500;
C385 <= 4400;
C386 <= 4400;
C387 <= 4400;
C388 <= 4400;
C389 <= 4400;
C390 <= 4400;
C391 <= 4400;
C392 <= 4400;
C393 <= 4400;
C394 <= 4400;
C395 <= 4400;
C396 <= 4400;
C397 <= 4400;
C398 <= 4400;
C399 <= 4400;
C400 <= 4400;
C401 <= 4400;
C402 <= 4400;
C403 <= 4400;
C404 <= 4400;
C405 <= 4400;
C406 <= 4400;
C407 <= 4400;
C408 <= 4400;
C409 <= 4400;
C410 <= 4400;
C411 <= 4400;
C412 <= 4400;
C413 <= 4400;
C414 <= 4400;
C415 <= 4400;
C416 <= 4400;
C417 <= 4400;
C418 <= 4400;
C419 <= 4400;
C420 <= 4400;
C421 <= 4400;
C422 <= 4400;
C423 <= 4400;
C424 <= 4400;
C425 <= 4400;
C426 <= 4400;
C427 <= 4400;
C428 <= 4400;
C429 <= 4400;
C430 <= 4400;
C431 <= 4400;
C432 <= 4400;
C433 <= 1;
C434 <= 1;
C435 <= 1;
C436 <= 1;
C437 <= 1;
C438 <= 1;
C439 <= 1;
C440 <= 1;
C441 <= 1;
C442 <= 1;
C443 <= 1;
C444 <= 1;
C445 <= 1;
C446 <= 1;
C447 <= 1;
C448 <= 1;
C449 <= 1;
C450 <= 1;
C451 <= 1;
C452 <= 1;
C453 <= 1;
C454 <= 1;
C455 <= 1;
C456 <= 1;
C457 <= 1;
C458 <= 1;
C459 <= 1;
C460 <= 1;
C461 <= 1;
C462 <= 1;
C463 <= 1;
C464 <= 1;
C465 <= 1;
C466 <= 1;
C467 <= 1;
C468 <= 1;
C469 <= 1;
C470 <= 1;
C471 <= 1;
C472 <= 1;
C473 <= 1;
C474 <= 1;
C475 <= 1;
C476 <= 1;
C477 <= 1;
C478 <= 1;
C479 <= 1;
C480 <= 1;
C481 <= 1;
C482 <= 1;
C483 <= 1;
C484 <= 1;
C485 <= 1;
C486 <= 1;
C487 <= 1;
C488 <= 1;
C489 <= 1;
C490 <= 1;
C491 <= 1;
C492 <= 1;
C493 <= 1;
C494 <= 1;
C495 <= 1;
C496 <= 1;
C497 <= 1;
C498 <= 1;
C499 <= 1;
C500 <= 1;
C501 <= 1;
C502 <= 1;
C503 <= 1;
C504 <= 1;
C505 <= 1;
C506 <= 1;
C507 <= 1;
C508 <= 1;
C509 <= 1;
C510 <= 1;
C511 <= 1;
C512 <= 1;
C513 <= 1;
C514 <= 1;
C515 <= 1;
C516 <= 1;
C517 <= 1;
C518 <= 1;
C519 <= 1;
C520 <= 1;
C521 <= 1;
C522 <= 1;
C523 <= 1;
C524 <= 1;
C525 <= 1;
C526 <= 1;
C527 <= 1;
C528 <= 1;
C529 <= 1;
C530 <= 1;
C531 <= 1;
C532 <= 1;
C533 <= 1;
C534 <= 1;
C535 <= 1;
C536 <= 1;
C537 <= 1;
C538 <= 1;
C539 <= 1;
C540 <= 1;
C541 <= 1;
C542 <= 1;
C543 <= 1;
C544 <= 1;
C545 <= 1;
C546 <= 1;
C547 <= 1;
C548 <= 1;
C549 <= 1;
C550 <= 1;
C551 <= 1;
C552 <= 1;
C553 <= 1;
C554 <= 1;
C555 <= 1;
C556 <= 1;
C557 <= 1;
C558 <= 1;
C559 <= 1;
C560 <= 1;
C561 <= 1;
C562 <= 1;
C563 <= 1;
C564 <= 1;
C565 <= 1;
C566 <= 1;
C567 <= 1;
C568 <= 1;
C569 <= 1;
C570 <= 1;
C571 <= 1;
C572 <= 1;
C573 <= 1;
C574 <= 1;
C575 <= 1;
C576 <= 1;
C577 <= 30000;
C578 <= 30000;
C579 <= 30000;
C580 <= 30000;
C581 <= 30000;
C582 <= 30000;
C583 <= 30000;
C584 <= 30000;
C585 <= 30000;
C586 <= 30000;
C587 <= 30000;
C588 <= 30000;
C589 <= 30000;
C590 <= 30000;
C591 <= 30000;
C592 <= 30000;
C593 <= 30000;
C594 <= 30000;
C595 <= 30000;
C596 <= 30000;
C597 <= 30000;
C598 <= 30000;
C599 <= 30000;
C600 <= 30000;
C601 <= 30000;
C602 <= 30000;
C603 <= 30000;
C604 <= 30000;
C605 <= 30000;
C606 <= 30000;
C607 <= 30000;
C608 <= 30000;
C609 <= 30000;
C610 <= 30000;
C611 <= 30000;
C612 <= 30000;
C613 <= 30000;
C614 <= 30000;
C615 <= 30000;
C616 <= 30000;
C617 <= 30000;
C618 <= 30000;
C619 <= 30000;
C620 <= 30000;
C621 <= 30000;
C622 <= 30000;
C623 <= 30000;
C624 <= 30000;

/* Integer definitions */
int C145,C146,C147,C148,C149,C150,C151,C152,C153,C154,C155,C156,C157,C158,C159,C160,C161,C162,C163,C164,C165,C166,C167,C168,C169,C170,C171,C172,C173,C174,C175,C176,C177,C178,C179,C180,C181,C182,C183,C184,C185,C186,C187,C188,C189,C190,C191,C192,C193,C194,C195,C196,C197,C198,C199,C200,C201,C202,C203,C204,C205,C206,C207,C208,C209,C210,C211,C212,C213,C214,C215,C216,C217,C218,C219,C220,C221,C222,C223,C224,C225,C226,C227,C228,C229,C230,C231,C232,C233,C234,C235,C236,C237,C238,C239,C240,C241,C242,C243,C244,C245,C246,C247,C248,C249,C250,C251,C252,C253,C254,C255,C256,C257,C258,C259,C260,C261,C262,C263,C264,C265,C266,C267,C268,C269,C270,C271,C272,C273,C274,C275,C276,C277,C278,C279,C280,C281,C282,C283,C284,C285,C286,C287,C288,C433,C434,C435,C436,C437,C438,C439,C440,C441,C442,C443,C444,C445,C446,C447,C448,C449,C450,C451,C452,C453,C454,C455,C456,C457,C458,C459,C460,C461,C462,C463,C464,C465,C466,C467,C468,C469,C470,C471,C472,C473,C474,C475,C476,C477,C478,C479,C480,C481,C482,C483,C484,C485,C486,C487,C488,C489,C490,C491,C492,C493,C494,C495,C496,C497,C498,C499,C500,C501,C502,C503,C504,C505,C506,C507,C508,C509,C510,C511,C512,C513,C514,C515,C516,C517,C518,C519,C520,C521,C522,C523,C524,C525,C526,C527,C528,C529,C530,C531,C532,C533,C534,C535,C536,C537,C538,C539,C540,C541,C542,C543,C544,C545,C546,C547,C548,C549,C550,C551,C552,C553,C554,C555,C556,C557,C558,C559,C560,C561,C562,C563,C564,C565,C566,C567,C568,C569,C570,C571,C572,C573,C574,C575,C576;
